NAME          SC205-2R-8
ROWS
 N  OBJ
 L  ROW00001
 L  ROW00002
 L  ROW00003
 E  ROW00004
 E  ROW00005
 E  ROW00006
 E  ROW00007
 L  ROW00008
 L  ROW00009
 L  ROW00010
 L  ROW00011
 L  ROW00012
 L  ROW00013
 E  ROW00014
 E  ROW00015
 E  ROW00016
 E  ROW00017
 E  ROW00018
 L  ROW00019
 L  ROW00020
 L  ROW00021
 L  ROW00022
 L  ROW00023
 L  ROW00024
 L  ROW00025
 L  ROW00026
 L  ROW00027
 L  ROW00028
 L  ROW00029
 L  ROW00030
 L  ROW00031
 L  ROW00032
 L  ROW00033
 L  ROW00034
 L  ROW00035
 E  ROW00036
 E  ROW00037
 E  ROW00038
 E  ROW00039
 E  ROW00040
 L  ROW00041
 L  ROW00042
 L  ROW00043
 L  ROW00044
 L  ROW00045
 L  ROW00046
 L  ROW00047
 L  ROW00048
 L  ROW00049
 L  ROW00050
 L  ROW00051
 L  ROW00052
 L  ROW00053
 L  ROW00054
 L  ROW00055
 L  ROW00056
 L  ROW00057
 E  ROW00058
 E  ROW00059
 E  ROW00060
 E  ROW00061
 E  ROW00062
 L  ROW00063
 L  ROW00064
 L  ROW00065
 L  ROW00066
 L  ROW00067
 L  ROW00068
 L  ROW00069
 L  ROW00070
 L  ROW00071
 L  ROW00072
 L  ROW00073
 L  ROW00074
 L  ROW00075
 L  ROW00076
 L  ROW00077
 L  ROW00078
 L  ROW00079
 E  ROW00080
 E  ROW00081
 E  ROW00082
 E  ROW00083
 E  ROW00084
 L  ROW00085
 L  ROW00086
 L  ROW00087
 L  ROW00088
 L  ROW00089
 L  ROW00090
 L  ROW00091
 L  ROW00092
 L  ROW00093
 L  ROW00094
 L  ROW00095
 L  ROW00096
 L  ROW00097
 L  ROW00098
 L  ROW00099
 L  ROW00100
 L  ROW00101
 E  ROW00102
 E  ROW00103
 E  ROW00104
 E  ROW00105
 E  ROW00106
 L  ROW00107
 L  ROW00108
 L  ROW00109
 L  ROW00110
 L  ROW00111
 L  ROW00112
 L  ROW00113
 L  ROW00114
 L  ROW00115
 L  ROW00116
 L  ROW00117
 L  ROW00118
 L  ROW00119
 L  ROW00120
 L  ROW00121
 L  ROW00122
 L  ROW00123
 E  ROW00124
 E  ROW00125
 E  ROW00126
 E  ROW00127
 E  ROW00128
 L  ROW00129
 L  ROW00130
 L  ROW00131
 L  ROW00132
 L  ROW00133
 L  ROW00134
 L  ROW00135
 L  ROW00136
 L  ROW00137
 L  ROW00138
 L  ROW00139
 L  ROW00140
 L  ROW00141
 L  ROW00142
 L  ROW00143
 L  ROW00144
 L  ROW00145
 E  ROW00146
 E  ROW00147
 E  ROW00148
 E  ROW00149
 E  ROW00150
 L  ROW00151
 L  ROW00152
 L  ROW00153
 L  ROW00154
 L  ROW00155
 L  ROW00156
 L  ROW00157
 L  ROW00158
 L  ROW00159
 L  ROW00160
 L  ROW00161
 L  ROW00162
 L  ROW00163
 L  ROW00164
 L  ROW00165
 L  ROW00166
 L  ROW00167
 E  ROW00168
 E  ROW00169
 E  ROW00170
 E  ROW00171
 E  ROW00172
 L  ROW00173
 L  ROW00174
 L  ROW00175
 L  ROW00176
 L  ROW00177
 L  ROW00178
 L  ROW00179
 L  ROW00180
 L  ROW00181
 L  ROW00182
 L  ROW00183
 L  ROW00184
 L  ROW00185
 L  ROW00186
 L  ROW00187
 L  ROW00188
 L  ROW00189
COLUMNS
    COL00004OBJ                         -1.0
RHS
BOUNDS
 UP BOUND      COL00001          +INF
 LO BOUND      COL00001             0
 UP BOUND      COL00002          +INF
 LO BOUND      COL00002             0
 UP BOUND      COL00003          +INF
 LO BOUND      COL00003             0
 UP BOUND      COL00004          +INF
 LO BOUND      COL00004             0
 UP BOUND      COL00005          +INF
 LO BOUND      COL00005             0
 UP BOUND      COL00006          +INF
 LO BOUND      COL00006             0
 UP BOUND      COL00007          +INF
 LO BOUND      COL00007             0
 UP BOUND      COL00008          +INF
 LO BOUND      COL00008             0
 UP BOUND      COL00009          +INF
 LO BOUND      COL00009             0
 UP BOUND      COL00010          +INF
 LO BOUND      COL00010             0
 UP BOUND      COL00011          +INF
 LO BOUND      COL00011             0
 UP BOUND      COL00012          +INF
 LO BOUND      COL00012             0
 UP BOUND      COL00013          +INF
 LO BOUND      COL00013             0
 UP BOUND      COL00014          +INF
 LO BOUND      COL00014             0
 UP BOUND      COL00015          +INF
 LO BOUND      COL00015             0
 UP BOUND      COL00016          +INF
 LO BOUND      COL00016             0
 UP BOUND      COL00017          +INF
 LO BOUND      COL00017             0
 UP BOUND      COL00018          +INF
 LO BOUND      COL00018             0
 UP BOUND      COL00019          +INF
 LO BOUND      COL00019             0
 UP BOUND      COL00020          +INF
 LO BOUND      COL00020             0
 UP BOUND      COL00021          +INF
 LO BOUND      COL00021             0
 UP BOUND      COL00022          +INF
 LO BOUND      COL00022             0
 UP BOUND      COL00023          +INF
 LO BOUND      COL00023             0
 UP BOUND      COL00024          +INF
 LO BOUND      COL00024             0
 UP BOUND      COL00025          +INF
 LO BOUND      COL00025             0
 UP BOUND      COL00026          +INF
 LO BOUND      COL00026             0
 UP BOUND      COL00027          +INF
 LO BOUND      COL00027             0
 UP BOUND      COL00028          +INF
 LO BOUND      COL00028             0
 UP BOUND      COL00029          +INF
 LO BOUND      COL00029             0
 UP BOUND      COL00030          +INF
 LO BOUND      COL00030             0
 UP BOUND      COL00031          +INF
 LO BOUND      COL00031             0
 UP BOUND      COL00032          +INF
 LO BOUND      COL00032             0
 UP BOUND      COL00033          +INF
 LO BOUND      COL00033             0
 UP BOUND      COL00034          +INF
 LO BOUND      COL00034             0
 UP BOUND      COL00035          +INF
 LO BOUND      COL00035             0
 UP BOUND      COL00036          +INF
 LO BOUND      COL00036             0
 UP BOUND      COL00037          +INF
 LO BOUND      COL00037             0
 UP BOUND      COL00038          +INF
 LO BOUND      COL00038             0
 UP BOUND      COL00039          +INF
 LO BOUND      COL00039             0
 UP BOUND      COL00040          +INF
 LO BOUND      COL00040             0
 UP BOUND      COL00041          +INF
 LO BOUND      COL00041             0
 UP BOUND      COL00042          +INF
 LO BOUND      COL00042             0
 UP BOUND      COL00043          +INF
 LO BOUND      COL00043             0
 UP BOUND      COL00044          +INF
 LO BOUND      COL00044             0
 UP BOUND      COL00045          +INF
 LO BOUND      COL00045             0
 UP BOUND      COL00046          +INF
 LO BOUND      COL00046             0
 UP BOUND      COL00047          +INF
 LO BOUND      COL00047             0
 UP BOUND      COL00048          +INF
 LO BOUND      COL00048             0
 UP BOUND      COL00049          +INF
 LO BOUND      COL00049             0
 UP BOUND      COL00050          +INF
 LO BOUND      COL00050             0
 UP BOUND      COL00051          +INF
 LO BOUND      COL00051             0
 UP BOUND      COL00052          +INF
 LO BOUND      COL00052             0
 UP BOUND      COL00053          +INF
 LO BOUND      COL00053             0
 UP BOUND      COL00054          +INF
 LO BOUND      COL00054             0
 UP BOUND      COL00055          +INF
 LO BOUND      COL00055             0
 UP BOUND      COL00056          +INF
 LO BOUND      COL00056             0
 UP BOUND      COL00057          +INF
 LO BOUND      COL00057             0
 UP BOUND      COL00058          +INF
 LO BOUND      COL00058             0
 UP BOUND      COL00059          +INF
 LO BOUND      COL00059             0
 UP BOUND      COL00060          +INF
 LO BOUND      COL00060             0
 UP BOUND      COL00061          +INF
 LO BOUND      COL00061             0
 UP BOUND      COL00062          +INF
 LO BOUND      COL00062             0
 UP BOUND      COL00063          +INF
 LO BOUND      COL00063             0
 UP BOUND      COL00064          +INF
 LO BOUND      COL00064             0
 UP BOUND      COL00065          +INF
 LO BOUND      COL00065             0
 UP BOUND      COL00066          +INF
 LO BOUND      COL00066             0
 UP BOUND      COL00067          +INF
 LO BOUND      COL00067             0
 UP BOUND      COL00068          +INF
 LO BOUND      COL00068             0
 UP BOUND      COL00069          +INF
 LO BOUND      COL00069             0
 UP BOUND      COL00070          +INF
 LO BOUND      COL00070             0
 UP BOUND      COL00071          +INF
 LO BOUND      COL00071             0
 UP BOUND      COL00072          +INF
 LO BOUND      COL00072             0
 UP BOUND      COL00073          +INF
 LO BOUND      COL00073             0
 UP BOUND      COL00074          +INF
 LO BOUND      COL00074             0
 UP BOUND      COL00075          +INF
 LO BOUND      COL00075             0
 UP BOUND      COL00076          +INF
 LO BOUND      COL00076             0
 UP BOUND      COL00077          +INF
 LO BOUND      COL00077             0
 UP BOUND      COL00078          +INF
 LO BOUND      COL00078             0
 UP BOUND      COL00079          +INF
 LO BOUND      COL00079             0
 UP BOUND      COL00080          +INF
 LO BOUND      COL00080             0
 UP BOUND      COL00081          +INF
 LO BOUND      COL00081             0
 UP BOUND      COL00082          +INF
 LO BOUND      COL00082             0
 UP BOUND      COL00083          +INF
 LO BOUND      COL00083             0
 UP BOUND      COL00084          +INF
 LO BOUND      COL00084             0
 UP BOUND      COL00085          +INF
 LO BOUND      COL00085             0
 UP BOUND      COL00086          +INF
 LO BOUND      COL00086             0
 UP BOUND      COL00087          +INF
 LO BOUND      COL00087             0
 UP BOUND      COL00088          +INF
 LO BOUND      COL00088             0
 UP BOUND      COL00089          +INF
 LO BOUND      COL00089             0
 UP BOUND      COL00090          +INF
 LO BOUND      COL00090             0
 UP BOUND      COL00091          +INF
 LO BOUND      COL00091             0
 UP BOUND      COL00092          +INF
 LO BOUND      COL00092             0
 UP BOUND      COL00093          +INF
 LO BOUND      COL00093             0
 UP BOUND      COL00094          +INF
 LO BOUND      COL00094             0
 UP BOUND      COL00095          +INF
 LO BOUND      COL00095             0
 UP BOUND      COL00096          +INF
 LO BOUND      COL00096             0
 UP BOUND      COL00097          +INF
 LO BOUND      COL00097             0
 UP BOUND      COL00098          +INF
 LO BOUND      COL00098             0
 UP BOUND      COL00099          +INF
 LO BOUND      COL00099             0
 UP BOUND      COL00100          +INF
 LO BOUND      COL00100             0
 UP BOUND      COL00101          +INF
 LO BOUND      COL00101             0
 UP BOUND      COL00102          +INF
 LO BOUND      COL00102             0
 UP BOUND      COL00103          +INF
 LO BOUND      COL00103             0
 UP BOUND      COL00104          +INF
 LO BOUND      COL00104             0
 UP BOUND      COL00105          +INF
 LO BOUND      COL00105             0
 UP BOUND      COL00106          +INF
 LO BOUND      COL00106             0
 UP BOUND      COL00107          +INF
 LO BOUND      COL00107             0
 UP BOUND      COL00108          +INF
 LO BOUND      COL00108             0
 UP BOUND      COL00109          +INF
 LO BOUND      COL00109             0
 UP BOUND      COL00110          +INF
 LO BOUND      COL00110             0
 UP BOUND      COL00111          +INF
 LO BOUND      COL00111             0
 UP BOUND      COL00112          +INF
 LO BOUND      COL00112             0
 UP BOUND      COL00113          +INF
 LO BOUND      COL00113             0
 UP BOUND      COL00114          +INF
 LO BOUND      COL00114             0
 UP BOUND      COL00115          +INF
 LO BOUND      COL00115             0
 UP BOUND      COL00116          +INF
 LO BOUND      COL00116             0
 UP BOUND      COL00117          +INF
 LO BOUND      COL00117             0
 UP BOUND      COL00118          +INF
 LO BOUND      COL00118             0
 UP BOUND      COL00119          +INF
 LO BOUND      COL00119             0
 UP BOUND      COL00120          +INF
 LO BOUND      COL00120             0
 UP BOUND      COL00121          +INF
 LO BOUND      COL00121             0
 UP BOUND      COL00122          +INF
 LO BOUND      COL00122             0
 UP BOUND      COL00123          +INF
 LO BOUND      COL00123             0
 UP BOUND      COL00124          +INF
 LO BOUND      COL00124             0
 UP BOUND      COL00125          +INF
 LO BOUND      COL00125             0
 UP BOUND      COL00126          +INF
 LO BOUND      COL00126             0
 UP BOUND      COL00127          +INF
 LO BOUND      COL00127             0
 UP BOUND      COL00128          +INF
 LO BOUND      COL00128             0
 UP BOUND      COL00129          +INF
 LO BOUND      COL00129             0
 UP BOUND      COL00130          +INF
 LO BOUND      COL00130             0
 UP BOUND      COL00131          +INF
 LO BOUND      COL00131             0
 UP BOUND      COL00132          +INF
 LO BOUND      COL00132             0
 UP BOUND      COL00133          +INF
 LO BOUND      COL00133             0
 UP BOUND      COL00134          +INF
 LO BOUND      COL00134             0
 UP BOUND      COL00135          +INF
 LO BOUND      COL00135             0
 UP BOUND      COL00136          +INF
 LO BOUND      COL00136             0
 UP BOUND      COL00137          +INF
 LO BOUND      COL00137             0
 UP BOUND      COL00138          +INF
 LO BOUND      COL00138             0
 UP BOUND      COL00139          +INF
 LO BOUND      COL00139             0
 UP BOUND      COL00140          +INF
 LO BOUND      COL00140             0
 UP BOUND      COL00141          +INF
 LO BOUND      COL00141             0
 UP BOUND      COL00142          +INF
 LO BOUND      COL00142             0
 UP BOUND      COL00143          +INF
 LO BOUND      COL00143             0
 UP BOUND      COL00144          +INF
 LO BOUND      COL00144             0
 UP BOUND      COL00145          +INF
 LO BOUND      COL00145             0
 UP BOUND      COL00146          +INF
 LO BOUND      COL00146             0
 UP BOUND      COL00147          +INF
 LO BOUND      COL00147             0
 UP BOUND      COL00148          +INF
 LO BOUND      COL00148             0
 UP BOUND      COL00149          +INF
 LO BOUND      COL00149             0
 UP BOUND      COL00150          +INF
 LO BOUND      COL00150             0
 UP BOUND      COL00151          +INF
 LO BOUND      COL00151             0
 UP BOUND      COL00152          +INF
 LO BOUND      COL00152             0
 UP BOUND      COL00153          +INF
 LO BOUND      COL00153             0
 UP BOUND      COL00154          +INF
 LO BOUND      COL00154             0
 UP BOUND      COL00155          +INF
 LO BOUND      COL00155             0
 UP BOUND      COL00156          +INF
 LO BOUND      COL00156             0
 UP BOUND      COL00157          +INF
 LO BOUND      COL00157             0
 UP BOUND      COL00158          +INF
 LO BOUND      COL00158             0
 UP BOUND      COL00159          +INF
 LO BOUND      COL00159             0
 UP BOUND      COL00160          +INF
 LO BOUND      COL00160             0
 UP BOUND      COL00161          +INF
 LO BOUND      COL00161             0
 UP BOUND      COL00162          +INF
 LO BOUND      COL00162             0
 UP BOUND      COL00163          +INF
 LO BOUND      COL00163             0
 UP BOUND      COL00164          +INF
 LO BOUND      COL00164             0
 UP BOUND      COL00165          +INF
 LO BOUND      COL00165             0
 UP BOUND      COL00166          +INF
 LO BOUND      COL00166             0
 UP BOUND      COL00167          +INF
 LO BOUND      COL00167             0
 UP BOUND      COL00168          +INF
 LO BOUND      COL00168             0
 UP BOUND      COL00169          +INF
 LO BOUND      COL00169             0
 UP BOUND      COL00170          +INF
 LO BOUND      COL00170             0
 UP BOUND      COL00171          +INF
 LO BOUND      COL00171             0
 UP BOUND      COL00172          +INF
 LO BOUND      COL00172             0
 UP BOUND      COL00173          +INF
 LO BOUND      COL00173             0
 UP BOUND      COL00174          +INF
 LO BOUND      COL00174             0
 UP BOUND      COL00175          +INF
 LO BOUND      COL00175             0
 UP BOUND      COL00176          +INF
 LO BOUND      COL00176             0
 UP BOUND      COL00177          +INF
 LO BOUND      COL00177             0
 UP BOUND      COL00178          +INF
 LO BOUND      COL00178             0
 UP BOUND      COL00179          +INF
 LO BOUND      COL00179             0
 UP BOUND      COL00180          +INF
 LO BOUND      COL00180             0
 UP BOUND      COL00181          +INF
 LO BOUND      COL00181             0
 UP BOUND      COL00182          +INF
 LO BOUND      COL00182             0
 UP BOUND      COL00183          +INF
 LO BOUND      COL00183             0
 UP BOUND      COL00184          +INF
 LO BOUND      COL00184             0
 UP BOUND      COL00185          +INF
 LO BOUND      COL00185             0
 UP BOUND      COL00186          +INF
 LO BOUND      COL00186             0
 UP BOUND      COL00187          +INF
 LO BOUND      COL00187             0
 UP BOUND      COL00188          +INF
 LO BOUND      COL00188             0
 UP BOUND      COL00189          +INF
 LO BOUND      COL00189             0
 UP BOUND      COL00190          +INF
 LO BOUND      COL00190             0
ENDATA
